1656671400
1656685800
1656930600
1656941400
1657017000
1657029600
1657189800
1657203600
1657103400
1657117800
1657274400
1657291500
1657535400
1657552500
1657618200
1657638900
1657707300
1657723500
1657794600
1657811700
1657881000
1657893600
1657963800
1658136600
1658159100
1658225700
1658242500
1658313000
1658313000
1658398500
1658414700
1658485800
1658501100
1658745000
1658760900
1658831400
1658846700
1658917800
1658933400
1659004200
1659019500
1659090600
1659105900
